p cnf 50 605
1 0
2 0
3 0
4 0
5 0
6 0
7 0
8 0
9 0
10 0
11 0
12 0
13 0
14 0
15 0
16 0
17 0
18 0
19 0
20 0
21 0
22 0
23 0
24 0
25 0
26 0
27 0
28 0
29 0
30 0
31 0
32 0
33 0
34 0
35 0
36 0
37 0
38 0
39 0
40 0
41 0
42 0
43 0
44 0
45 0
46 0
47 0
48 0
49 0
50 0
-3 -2 0
-4 -2 0
-4 -3 0
-5 -2 0
-5 -3 0
-6 -2 0
-6 -3 0
-6 -4 0
-6 -5 0
-7 -3 0
-8 -2 0
-8 -3 0
-8 -6 0
-8 -7 0
-9 -1 0
-9 -3 0
-9 -5 0
-9 -6 0
-9 -7 0
-9 -8 0
-10 -2 0
-10 -4 0
-10 -5 0
-10 -8 0
-11 -1 0
-11 -4 0
-11 -5 0
-11 -10 0
-12 -1 0
-12 -3 0
-13 -1 0
-13 -4 0
-13 -5 0
-13 -6 0
-13 -8 0
-13 -9 0
-13 -10 0
-13 -11 0
-14 -3 0
-14 -6 0
-14 -7 0
-14 -8 0
-14 -12 0
-15 -1 0
-15 -2 0
-15 -4 0
-15 -5 0
-15 -6 0
-15 -10 0
-15 -11 0
-15 -12 0
-15 -13 0
-16 -1 0
-16 -3 0
-16 -9 0
-16 -12 0
-16 -14 0
-16 -15 0
-17 -1 0
-17 -5 0
-17 -6 0
-17 -7 0
-17 -8 0
-17 -9 0
-17 -12 0
-17 -16 0
-18 -1 0
-18 -7 0
-18 -9 0
-18 -10 0
-18 -11 0
-18 -12 0
-18 -15 0
-18 -16 0
-18 -17 0
-19 -4 0
-19 -5 0
-19 -11 0
-19 -12 0
-19 -13 0
-19 -15 0
-19 -16 0
-19 -18 0
-20 -1 0
-20 -7 0
-20 -9 0
-20 -13 0
-20 -14 0
-20 -17 0
-20 -18 0
-21 -1 0
-21 -2 0
-21 -10 0
-21 -12 0
-22 -1 0
-22 -2 0
-22 -4 0
-22 -5 0
-22 -9 0
-22 -11 0
-22 -12 0
-22 -13 0
-22 -16 0
-22 -17 0
-22 -18 0
-22 -19 0
-22 -21 0
-23 -1 0
-23 -2 0
-23 -10 0
-23 -11 0
-23 -12 0
-23 -14 0
-23 -15 0
-23 -21 0
-23 -22 0
-24 -3 0
-24 -7 0
-24 -8 0
-24 -14 0
-24 -16 0
-24 -20 0
-24 -21 0
-24 -22 0
-24 -23 0
-25 -1 0
-25 -4 0
-25 -5 0
-25 -7 0
-25 -8 0
-25 -9 0
-25 -10 0
-25 -13 0
-25 -15 0
-25 -19 0
-25 -20 0
-25 -22 0
-26 -1 0
-26 -2 0
-26 -9 0
-26 -10 0
-26 -11 0
-26 -12 0
-26 -13 0
-26 -15 0
-26 -17 0
-26 -18 0
-26 -19 0
-26 -22 0
-26 -23 0
-26 -24 0
-26 -25 0
-27 -1 0
-27 -7 0
-27 -8 0
-27 -9 0
-27 -12 0
-27 -14 0
-27 -16 0
-27 -18 0
-27 -19 0
-27 -20 0
-27 -21 0
-27 -24 0
-27 -26 0
-28 -1 0
-28 -2 0
-28 -4 0
-28 -5 0
-28 -6 0
-28 -10 0
-28 -11 0
-28 -12 0
-28 -13 0
-28 -16 0
-28 -18 0
-28 -19 0
-28 -21 0
-28 -23 0
-28 -25 0
-28 -26 0
-29 -1 0
-29 -2 0
-29 -7 0
-29 -8 0
-29 -10 0
-29 -13 0
-29 -19 0
-29 -20 0
-29 -21 0
-29 -23 0
-30 -2 0
-30 -5 0
-30 -7 0
-30 -8 0
-30 -9 0
-30 -10 0
-30 -11 0
-30 -13 0
-30 -17 0
-30 -19 0
-30 -20 0
-30 -25 0
-30 -27 0
-30 -29 0
-31 -4 0
-31 -5 0
-31 -7 0
-31 -8 0
-31 -9 0
-31 -10 0
-31 -13 0
-31 -18 0
-31 -19 0
-31 -20 0
-31 -30 0
-32 -1 0
-32 -4 0
-32 -10 0
-32 -11 0
-32 -13 0
-32 -15 0
-32 -16 0
-32 -17 0
-32 -18 0
-32 -19 0
-32 -20 0
-32 -22 0
-32 -25 0
-32 -26 0
-32 -27 0
-32 -28 0
-33 -6 0
-33 -9 0
-33 -12 0
-33 -14 0
-33 -15 0
-33 -16 0
-33 -17 0
-33 -21 0
-33 -22 0
-33 -24 0
-33 -26 0
-33 -27 0
-33 -28 0
-33 -32 0
-34 -7 0
-34 -9 0
-34 -10 0
-34 -11 0
-34 -13 0
-34 -17 0
-34 -18 0
-34 -25 0
-34 -27 0
-34 -29 0
-34 -30 0
-34 -31 0
-35 -2 0
-35 -3 0
-35 -6 0
-35 -7 0
-35 -10 0
-35 -11 0
-35 -13 0
-35 -21 0
-35 -23 0
-35 -25 0
-35 -28 0
-35 -29 0
-35 -30 0
-35 -31 0
-36 -1 0
-36 -7 0
-36 -8 0
-36 -9 0
-36 -10 0
-36 -11 0
-36 -12 0
-36 -14 0
-36 -16 0
-36 -17 0
-36 -18 0
-36 -19 0
-36 -20 0
-36 -21 0
-36 -23 0
-36 -24 0
-36 -26 0
-36 -27 0
-36 -31 0
-36 -32 0
-36 -34 0
-37 -3 0
-37 -6 0
-37 -7 0
-37 -8 0
-37 -14 0
-37 -20 0
-37 -27 0
-37 -29 0
-37 -30 0
-37 -31 0
-37 -34 0
-37 -35 0
-38 -3 0
-38 -4 0
-38 -5 0
-38 -6 0
-38 -9 0
-38 -12 0
-38 -13 0
-38 -16 0
-38 -17 0
-38 -18 0
-38 -20 0
-38 -25 0
-38 -26 0
-38 -27 0
-38 -30 0
-38 -31 0
-38 -32 0
-38 -33 0
-38 -34 0
-39 -3 0
-39 -5 0
-39 -6 0
-39 -9 0
-39 -12 0
-39 -14 0
-39 -16 0
-39 -17 0
-39 -18 0
-39 -21 0
-39 -22 0
-39 -24 0
-39 -26 0
-39 -32 0
-39 -33 0
-39 -37 0
-39 -38 0
-40 -1 0
-40 -4 0
-40 -5 0
-40 -7 0
-40 -8 0
-40 -10 0
-40 -13 0
-40 -15 0
-40 -19 0
-40 -20 0
-40 -23 0
-40 -26 0
-40 -28 0
-40 -30 0
-40 -34 0
-40 -35 0
-40 -37 0
-41 -3 0
-41 -6 0
-41 -9 0
-41 -12 0
-41 -13 0
-41 -14 0
-41 -17 0
-41 -18 0
-41 -24 0
-41 -25 0
-41 -27 0
-41 -31 0
-41 -32 0
-41 -33 0
-41 -38 0
-41 -39 0
-42 -1 0
-42 -10 0
-42 -11 0
-42 -18 0
-42 -19 0
-42 -20 0
-42 -23 0
-42 -24 0
-42 -25 0
-42 -26 0
-42 -27 0
-42 -29 0
-42 -30 0
-42 -32 0
-42 -35 0
-42 -36 0
-42 -40 0
-43 -3 0
-43 -4 0
-43 -5 0
-43 -6 0
-43 -11 0
-43 -13 0
-43 -15 0
-43 -16 0
-43 -19 0
-43 -21 0
-43 -22 0
-43 -23 0
-43 -25 0
-43 -26 0
-43 -28 0
-43 -35 0
-43 -40 0
-43 -41 0
-44 -1 0
-44 -10 0
-44 -11 0
-44 -13 0
-44 -15 0
-44 -18 0
-44 -19 0
-44 -22 0
-44 -25 0
-44 -28 0
-44 -29 0
-44 -30 0
-44 -31 0
-44 -32 0
-44 -36 0
-44 -40 0
-44 -42 0
-44 -43 0
-45 -1 0
-45 -7 0
-45 -8 0
-45 -9 0
-45 -11 0
-45 -12 0
-45 -14 0
-45 -16 0
-45 -17 0
-45 -18 0
-45 -19 0
-45 -20 0
-45 -21 0
-45 -24 0
-45 -26 0
-45 -27 0
-45 -31 0
-45 -32 0
-45 -33 0
-45 -34 0
-45 -41 0
-45 -42 0
-46 -5 0
-46 -7 0
-46 -8 0
-46 -9 0
-46 -10 0
-46 -11 0
-46 -13 0
-46 -14 0
-46 -17 0
-46 -20 0
-46 -25 0
-46 -27 0
-46 -29 0
-46 -30 0
-46 -31 0
-46 -34 0
-46 -35 0
-46 -36 0
-46 -37 0
-46 -38 0
-46 -40 0
-46 -41 0
-46 -44 0
-46 -45 0
-47 -3 0
-47 -6 0
-47 -7 0
-47 -8 0
-47 -10 0
-47 -14 0
-47 -20 0
-47 -27 0
-47 -29 0
-47 -30 0
-47 -31 0
-47 -34 0
-47 -35 0
-47 -39 0
-47 -40 0
-47 -45 0
-47 -46 0
-48 -1 0
-48 -4 0
-48 -5 0
-48 -6 0
-48 -7 0
-48 -8 0
-48 -13 0
-48 -16 0
-48 -17 0
-48 -18 0
-48 -20 0
-48 -25 0
-48 -27 0
-48 -29 0
-48 -30 0
-48 -31 0
-48 -33 0
-48 -34 0
-48 -36 0
-48 -38 0
-48 -39 0
-48 -40 0
-48 -41 0
-48 -44 0
-48 -45 0
-48 -46 0
-49 -3 0
-49 -6 0
-49 -7 0
-49 -8 0
-49 -12 0
-49 -14 0
-49 -20 0
-49 -21 0
-49 -24 0
-49 -27 0
-49 -30 0
-49 -31 0
-49 -33 0
-49 -34 0
-49 -36 0
-49 -37 0
-49 -42 0
-49 -45 0
-49 -46 0
-49 -47 0
-49 -48 0
-50 -3 0
-50 -9 0
-50 -12 0
-50 -14 0
-50 -16 0
-50 -17 0
-50 -18 0
-50 -21 0
-50 -23 0
-50 -24 0
-50 -26 0
-50 -32 0
-50 -33 0
-50 -37 0
-50 -39 0
-50 -41 0
-50 -43 0
-50 -49 0
